(set-logic ALL)
(declare-fun var0 () String)
(assert (str.in_re var0 (re.++ (re.+ (re.union (str.to_re "000") (str.to_re "1"))) (re.++ (re.* (re.+ (str.to_re "222"))) (re.++ (re.* (re.+ (str.to_re "33"))) (re.++ (re.union (re.+ (str.to_re "444")) (re.+ (str.to_re "55"))) (re.++ (re.* (re.union (str.to_re "66") (str.to_re "7"))) (re.++ (re.* (re.+ (str.to_re "88"))) (re.++ (re.* (re.+ (str.to_re "999"))) (re.++ (re.* (re.* (str.to_re "a"))) (re.++ (re.+ (re.union (str.to_re "bbb") (str.to_re "c"))) (re.++ (re.union (re.union (str.to_re "dd") (str.to_re "e")) (re.union (str.to_re "fff") (str.to_re "g"))) (re.++ (re.union (re.+ (str.to_re "hhh")) (re.+ (str.to_re "ii"))) (re.++ (re.* (re.union (str.to_re "jj") (str.to_re "kkk"))) (re.++ (re.union (re.+ (str.to_re "lll")) (re.+ (str.to_re "m"))) (re.++ (re.+ (re.union (str.to_re "nnn") (str.to_re "o"))) (re.++ (re.+ (re.+ (str.to_re "pp"))) (re.++ (re.* (re.+ (str.to_re "q"))) (re.++ (re.+ (re.union (str.to_re "r") (str.to_re "ss"))) (re.++ (re.union (re.* (str.to_re "ttt")) (re.* (str.to_re "uuu"))) (re.++ (re.+ (re.union (str.to_re "vv") (str.to_re "w"))) (re.++ (re.union (re.* (str.to_re "xx")) (re.* (str.to_re "yy"))) (re.++ (re.* (re.* (str.to_re "zz"))) (re.++ (re.+ (re.+ (str.to_re "A"))) (re.++ (re.+ (re.* (str.to_re "BB"))) (re.++ (re.* (re.+ (str.to_re "CCC"))) (re.++ (re.* (re.+ (str.to_re "DDD"))) (re.++ (re.union (re.+ (str.to_re "E")) (re.+ (str.to_re "FFF"))) (re.++ (re.+ (re.union (str.to_re "GGG") (str.to_re "HH"))) (re.++ (re.+ (re.* (str.to_re "II"))) (re.++ (re.union (re.* (str.to_re "JJJ")) (re.* (str.to_re "K"))) (re.++ (re.* (re.union (str.to_re "LLL") (str.to_re "MM"))) (re.++ (re.union (re.* (str.to_re "NNN")) (re.* (str.to_re "O"))) (re.++ (re.union (re.* (str.to_re "PPP")) (re.* (str.to_re "QQQ"))) (re.++ (re.union (re.union (str.to_re "R") (str.to_re "S")) (re.union (str.to_re "TTT") (str.to_re "U"))) (re.++ (re.+ (re.+ (str.to_re "VVV"))) (re.++ (re.+ (re.+ (str.to_re "WWW"))) (re.++ (re.union (re.union (str.to_re "XX") (str.to_re "YYY")) (re.union (str.to_re "ZZZ") (str.to_re "!"))) (re.++ (re.+ (re.* (str.to_re """"""""))) (re.++ (re.+ (re.* (str.to_re "##"))) (re.++ (re.* (re.union (str.to_re "$") (str.to_re "%"))) (re.++ (re.+ (re.union (str.to_re "&&&") (str.to_re "'"))) (re.++ (re.* (re.* (str.to_re "((("))) (re.++ (re.union (re.* (str.to_re ")))")) (re.* (str.to_re "*"))) (re.++ (re.union (re.* (str.to_re "+")) (re.* (str.to_re ",,"))) (re.++ (re.+ (re.union (str.to_re "--") (str.to_re ".."))) (re.++ (re.* (re.* (str.to_re "/"))) (re.++ (re.+ (re.union (str.to_re ":") (str.to_re ";"))) (re.++ (re.* (re.+ (str.to_re "<"))) (re.++ (re.* (re.* (str.to_re "=="))) (re.++ (re.union (re.union (str.to_re ">") (str.to_re "?")) (re.union (str.to_re "@@") (str.to_re "[[["))) (re.++ (re.+ (re.union (str.to_re "\\\\\\") (str.to_re "]"))) (re.++ (re.* (re.union (str.to_re "^^^") (str.to_re "___"))) (re.++ (re.+ (re.* (str.to_re "```"))) (re.++ (re.* (re.* (str.to_re "{{"))) (re.++ (re.* (re.union (str.to_re "|") (str.to_re "}}}"))) (re.++ (re.union (re.union (str.to_re "~~") (str.to_re "000")) (re.union (str.to_re "111") (str.to_re "2"))) (re.++ (re.* (re.* (str.to_re "33"))) (re.++ (re.+ (re.* (str.to_re "4"))) (re.++ (re.union (re.* (str.to_re "55")) (re.* (str.to_re "6"))) (re.++ (re.* (re.union (str.to_re "777") (str.to_re "8"))) (re.++ (re.+ (re.* (str.to_re "999"))) (re.++ (re.* (re.+ (str.to_re "aa"))) (re.++ (re.+ (re.union (str.to_re "bb") (str.to_re "cc"))) (re.++ (re.union (re.+ (str.to_re "d")) (re.+ (str.to_re "ee"))) (re.++ (re.union (re.+ (str.to_re "fff")) (re.+ (str.to_re "g"))) (re.++ (re.+ (re.union (str.to_re "hhh") (str.to_re "i"))) (re.++ (re.* (re.* (str.to_re "jjj"))) (re.++ (re.+ (re.* (str.to_re "k"))) (re.++ (re.+ (re.* (str.to_re "ll"))) (re.++ (re.union (re.* (str.to_re "mm")) (re.* (str.to_re "nnn"))) (re.++ (re.union (re.* (str.to_re "o")) (re.* (str.to_re "p"))) (re.++ (re.+ (re.+ (str.to_re "qqq"))) (re.++ (re.union (re.union (str.to_re "rr") (str.to_re "sss")) (re.union (str.to_re "t") (str.to_re "u"))) (re.++ (re.* (re.* (str.to_re "vvv"))) (re.++ (re.* (re.union (str.to_re "ww") (str.to_re "x"))) (re.++ (re.union (re.* (str.to_re "y")) (re.* (str.to_re "zz"))) (re.++ (re.union (re.+ (str.to_re "AA")) (re.+ (str.to_re "BBB"))) (re.++ (re.union (re.+ (str.to_re "CCC")) (re.+ (str.to_re "DDD"))) (re.++ (re.* (re.* (str.to_re "EE"))) (re.++ (re.* (re.union (str.to_re "FF") (str.to_re "GG"))) (re.++ (re.* (re.+ (str.to_re "H"))) (re.++ (re.union (re.* (str.to_re "II")) (re.* (str.to_re "JJ"))) (re.++ (re.* (re.union (str.to_re "KKK") (str.to_re "LL"))) (re.++ (re.+ (re.union (str.to_re "MM") (str.to_re "NNN"))) (re.++ (re.+ (re.+ (str.to_re "OO"))) (re.++ (re.union (re.* (str.to_re "P")) (re.* (str.to_re "QQ"))) (re.++ (re.union (re.+ (str.to_re "RR")) (re.+ (str.to_re "SSS"))) (re.++ (re.* (re.* (str.to_re "TT"))) (re.++ (re.* (re.union (str.to_re "U") (str.to_re "VV"))) (re.++ (re.union (re.+ (str.to_re "WWW")) (re.+ (str.to_re "X"))) (re.++ (re.* (re.union (str.to_re "YYY") (str.to_re "Z"))) (re.++ (re.+ (re.union (str.to_re "!!!") (str.to_re """"))) (re.++ (re.+ (re.* (str.to_re "#"))) (re.++ (re.union (re.+ (str.to_re "$$$")) (re.+ (str.to_re "%%%"))) (re.++ (re.* (re.union (str.to_re "&") (str.to_re "'"))) (re.++ (re.union (re.+ (str.to_re "(((")) (re.+ (str.to_re ")"))) (re.++ (re.union (re.* (str.to_re "**")) (re.* (str.to_re "+"))) (re.++ (re.union (re.* (str.to_re ",")) (re.* (str.to_re "-"))) (re.++ (re.+ (re.union (str.to_re ".") (str.to_re "/"))) (re.* (re.* (str.to_re "::")))))))))))))))))))))))))))))))))))))))))))))))))))))))))))))))))))))))))))))))))))))))))))))))))))))))
(check-sat)